p tdp 91 90
83 37
29 34
90 33
87 14
6 48
80 25
52 60
58 68
15 22
71 20
52 8
54 12
37 57
41 71
82 42
56 82
32 33
10 46
51 1
21 5
7 67
2 44
43 46
27 13
11 15
63 85
21 20
11 45
79 70
69 86
47 53
50 28
40 66
53 35
32 3
9 91
54 15
77 38
52 30
86 19
17 78
86 1
81 87
10 67
12 39
84 12
19 26
80 41
82 65
31 75
42 51
31 19
70 16
24 10
28 87
88 23
73 82
78 64
89 58
27 88
59 62
13 29
75 76
72 55
60 61
4 57
55 21
85 23
18 53
29 48
50 63
57 87
78 47
11 16
24 68
3 77
59 49
12 2
74 91
53 24
59 13
35 12
36 25
91 40
30 65
27 91
86 87
38 20
39 77
63 89
